
Gurobi 12.0.2 (linux64, C++) logging started Thu Jun 19 08:00:19 2025

Set parameter LogFile to value "log/instances/scenario4/correlated_sc4/300/kpfs_5.txt.log"

Gurobi 12.0.2 (linux64, C++) logging started Thu Jun 19 08:01:42 2025

Set parameter LogFile to value "log/instances/scenario4/correlated_sc4/300/kpfs_5.txt.log"

Gurobi 12.0.2 (linux64, C++) logging started Thu Jun 19 08:02:53 2025

Set parameter LogFile to value "log/instances/scenario4/correlated_sc4/300/kpfs_5.txt.log"

Gurobi 12.0.2 (linux64, C++) logging started Thu Jun 19 08:03:57 2025

Set parameter LogFile to value "log/instances/scenario4/correlated_sc4/300/kpfs_5.txt.log"

Gurobi 12.0.2 (linux64, C++) logging started Thu Jun 19 13:20:06 2025

Set parameter WLSAccessID
Set parameter WLSSecret
Set parameter LicenseID to value 2679381
Set parameter LogFile to value "log/instances/scenario4/correlated_sc4/300/kpfs_5.txt.log"
Academic license 2679381 - for non-commercial use only - registered to be___@poli.ufrj.br
Set parameter TimeLimit to value 1800
Set parameter Threads to value 1
Gurobi Optimizer version 12.0.2 build v12.0.2rc0 (linux64 - "Ubuntu 24.04.1 LTS")

CPU model: 13th Gen Intel(R) Core(TM) i7-1355U, instruction set [SSE2|AVX|AVX2]
Thread count: 6 physical cores, 12 logical processors, using up to 1 threads

Non-default parameters:
TimeLimit  1800
Threads  1

Academic license 2679381 - for non-commercial use only - registered to be___@poli.ufrj.br
Optimize a model with 902 rows, 1200 columns and 9600 nonzeros
Model fingerprint: 0x32a16765
Variable types: 0 continuous, 1200 integer (300 binary)
Coefficient statistics:
  Matrix range     [1e+00, 3e+01]
  Objective range  [1e+00, 4e+01]
  Bounds range     [1e+00, 1e+01]
  RHS range        [1e+00, 5e+02]
Found heuristic solution: objective 631.0000000
Presolve removed 0 rows and 18 columns
Presolve time: 0.11s
Presolved: 902 rows, 1182 columns, 9564 nonzeros
Variable types: 0 continuous, 1182 integer (368 binary)

Root relaxation: objective 9.167114e+02, 627 iterations, 0.08 seconds (0.04 work units)

    Nodes    |    Current Node    |     Objective Bounds      |     Work
 Expl Unexpl |  Obj  Depth IntInf | Incumbent    BestBd   Gap | It/Node Time

     0     0  916.71144    0  129  631.00000  916.71144  45.3%     -    0s
H    0     0                     641.0000000  916.71144  43.0%     -    0s
H    0     0                     652.0000000  916.71144  40.6%     -    0s
H    0     0                     776.0000000  916.71144  18.1%     -    0s
H    0     0                     798.0000000  916.71144  14.9%     -    0s
H    0     0                     837.0000000  916.71144  9.52%     -    0s
H    0     0                     839.0000000  916.71144  9.26%     -    0s
H    0     0                     847.0000000  916.71144  8.23%     -    0s
H    0     0                     852.0000000  916.71144  7.60%     -    0s
H    0     0                     857.0000000  916.71144  6.97%     -    0s
H    0     0                     859.0000000  916.71144  6.72%     -    0s
     0     0  916.03507    0  130  859.00000  916.03507  6.64%     -    0s
H    0     0                     860.0000000  916.03328  6.52%     -    0s
H    0     0                     861.0000000  916.03328  6.39%     -    0s
H    0     0                     862.0000000  916.03328  6.27%     -    0s
H    0     0                     863.0000000  916.03328  6.15%     -    0s
     0     0  915.91693    0  137  863.00000  915.91693  6.13%     -    1s
H    0     0                     864.0000000  915.90733  6.01%     -    1s
     0     0  915.90733    0  139  864.00000  915.90733  6.01%     -    1s
     0     0  915.90724    0  140  864.00000  915.90724  6.01%     -    1s
     0     0  915.84935    0  142  864.00000  915.84935  6.00%     -    1s
     0     0  915.84205    0  143  864.00000  915.84205  6.00%     -    1s
     0     0  915.84205    0  143  864.00000  915.84205  6.00%     -    1s
     0     0  915.82756    0  141  864.00000  915.82756  6.00%     -    1s
     0     0  915.82266    0  139  864.00000  915.82266  6.00%     -    1s
     0     0  915.82144    0  143  864.00000  915.82144  6.00%     -    1s
     0     0  915.82141    0  143  864.00000  915.82141  6.00%     -    1s
     0     0  915.80880    0  141  864.00000  915.80880  6.00%     -    1s
     0     0  915.80814    0  141  864.00000  915.80814  6.00%     -    1s
     0     2  915.80048    0  141  864.00000  915.80048  6.00%     -    1s
H   26    26                     866.0000000  914.92845  5.65%  67.2    2s
H   26    26                     867.0000000  914.92845  5.53%  67.2    2s
H   26    26                     869.0000000  914.92845  5.29%  67.2    2s
H   26    26                     873.0000000  914.92845  4.80%  67.2    2s
H  130   118                     877.0000000  914.92845  4.32%  45.6    3s
H  236   147                     887.0000000  913.27648  2.96%  47.3    4s
H  236   109                     892.0000000  913.27648  2.39%  47.3    4s
   373   192  911.07990    4  132  892.00000  912.62703  2.31%  48.3    5s
   642   364  910.66894   20  128  892.00000  910.66894  2.09%  55.1   10s
   724   392  898.02567   33  100  892.00000  910.66894  2.09%  57.6   15s
  1048   463  903.75231   24  105  892.00000  910.59124  2.08%  59.2   20s
  1456   546  895.09298   34  110  892.00000  907.70165  1.76%  55.8   25s
  1653   549  904.15942   20  115  892.00000  906.56760  1.63%  54.8   30s
  2159   725  897.55338   27  116  892.00000  905.14820  1.47%  52.5   36s
  2637   887  896.68548   27  109  892.00000  904.26612  1.38%  51.0   40s
* 2900   781              42     895.0000000  903.82953  0.99%  50.3   42s
  3288   820  896.85284   27  103  895.00000  903.29052  0.93%  49.4   45s
  4023   893  896.10176   29   99  895.00000  902.38063  0.82%  48.0   50s
  4654   892  897.67207   28  108  895.00000  901.60983  0.74%  46.9   55s
  5240   884  896.50435   23  100  895.00000  901.21455  0.69%  46.1   61s
  5523   852  897.63102   25   98  895.00000  900.85474  0.65%  45.8   65s
  6219   804     cutoff   24       895.00000  900.31740  0.59%  45.0   70s
  6748   720  897.37893   29  105  895.00000  899.81793  0.54%  44.5   75s
  7458   534  897.65289   32  114  895.00000  898.94009  0.44%  43.8   80s
  7955   296  896.87204   27  107  895.00000  897.91754  0.33%  43.3   85s

Cutting planes:
  Gomory: 5
  MIR: 8
  Zero half: 6

Explored 8314 nodes (353086 simplex iterations) in 86.75 seconds (24.46 work units)
Thread count was 1 (of 12 available processors)

Solution count 10: 895 892 887 ... 863

Optimal solution found (tolerance 1.00e-04)
Best objective 8.950000000000e+02, best bound 8.950000000000e+02, gap 0.0000%
